# 12218
param n := 30;
param s := 1;
set E :=  (0,1) (0,21) (1,17) (2,23) (3,6) (3,11) (4,18) (4,22) (5,26) (6,29) (7,11) (8,11) (8,24) (9,25) (10,19) (11,23) (12,19) (12,22) (12,27) (13,17) (13,25) (14,16) (15,22) (16,21) (17,19) (17,20) (17,29) (21,26) (21,28) (24,26);
